c Este es el tablero 0 en CNF
p cnf 1 0
1 0


c Este es el tablero 1 en CNF
p cnf 1 0
1 0 


c Este es el tablero 2 en CNF
p cnf 64 15
1 0 6 0 16 0 30 0 36 0 55 0 61 0
9 10 11 12 0 
17 18 19 20 0 
21 22 23 24 0 
25 26 27 28 0 
37 38 39 40 0 
41 42 43 44 0 
45 46 47 48 0 
49 50 51 52 0 
57 58 59 60 0 


c Este es el tablero 3 en CNF
p cnf 64 15
4 0 6 0 13 0 34 0 47 0 49 0 60 0
9 10 11 12 0 
17 18 19 20 0 
21 22 23 24 0 
25 26 27 28 0 
29 30 31 32 0 
37 38 39 40 0 
41 42 43 44 0 
53 54 55 56 0 
61 62 63 64 0 


c Este es el tablero 4 en CNF
p cnf 729 80
31 0 81 0 92 0 117 0 125 0 147 0 180 0 183 0 224 0 229 0 326 0 377 0 393 0 403 0 406 0 420 0 435 0 479 0 499 0 513 0 546 0 554 0 573 0 615 0 689 0 702 0 712 0
1 2 3 4 5 6 7 8 9 0 
10 11 12 13 14 15 16 17 18 0 
19 20 21 22 23 24 25 26 27 0 
37 38 39 40 41 42 43 44 45 0 
46 47 48 49 50 51 52 53 54 0 
55 56 57 58 59 60 61 62 63 0 
64 65 66 67 68 69 70 71 72 0 
82 83 84 85 86 87 88 89 90 0 
100 101 102 103 104 105 106 107 108 0 
127 128 129 130 131 132 133 134 135 0 
136 137 138 139 140 141 142 143 144 0 
154 155 156 157 158 159 160 161 162 0 
163 164 165 166 167 168 169 170 171 0 
190 191 192 193 194 195 196 197 198 0 
199 200 201 202 203 204 205 206 207 0 
208 209 210 211 212 213 214 215 216 0 
235 236 237 238 239 240 241 242 243 0 
244 245 246 247 248 249 250 251 252 0 
253 254 255 256 257 258 259 260 261 0 
262 263 264 265 266 267 268 269 270 0 
271 272 273 274 275 276 277 278 279 0 
280 281 282 283 284 285 286 287 288 0 
289 290 291 292 293 294 295 296 297 0 
298 299 300 301 302 303 304 305 306 0 
307 308 309 310 311 312 313 314 315 0 
316 317 318 319 320 321 322 323 324 0 
334 335 336 337 338 339 340 341 342 0 
343 344 345 346 347 348 349 350 351 0 
352 353 354 355 356 357 358 359 360 0 
361 362 363 364 365 366 367 368 369 0 
379 380 381 382 383 384 385 386 387 0 
424 425 426 427 428 429 430 431 432 0 
442 443 444 445 446 447 448 449 450 0 
451 452 453 454 455 456 457 458 459 0 
460 461 462 463 464 465 466 467 468 0 
469 470 471 472 473 474 475 476 477 0 
487 488 489 490 491 492 493 494 495 0 
514 515 516 517 518 519 520 521 522 0 
523 524 525 526 527 528 529 530 531 0 
532 533 534 535 536 537 538 539 540 0 
559 560 561 562 563 564 565 566 567 0 
577 578 579 580 581 582 583 584 585 0 
586 587 588 589 590 591 592 593 594 0 
595 596 597 598 599 600 601 602 603 0 
604 605 606 607 608 609 610 611 612 0 
622 623 624 625 626 627 628 629 630 0 
631 632 633 634 635 636 637 638 639 0 
640 641 642 643 644 645 646 647 648 0 
649 650 651 652 653 654 655 656 657 0 
658 659 660 661 662 663 664 665 666 0 
667 668 669 670 671 672 673 674 675 0 
676 677 678 679 680 681 682 683 684 0 
703 704 705 706 707 708 709 710 711 0 
721 722 723 724 725 726 727 728 729 0 


